/*********************************************
 * OPL 12.10.0.0 Data
 * Author: natal
 * Creation Date: 07-01-2022 at 21:56:18
 *********************************************/
 
T = 7;
ch= 10;
  
 offset = 
[
[0,3,0,0,2,0,0],
[0,0,2,1,2,0,0],
[0,0,0,3,1,0,0],
[0,0,0,0,0,0,0],
[0,0,0,0,0,0,0],
[0,0,1,1,0,0,0],
[0,3,2,0,0,0,0],
];
 